NAME          
ROWS
 N  OBJ
 L  c1
 L  c2
COLUMNS
    MARKER    'MARKER'                 'INTORG'
    x[1]      c1        78
    x[1]      c2        358
    x[1]      OBJ       -750
    x[2]      c1        140
    x[2]      c2        991
    x[2]      OBJ       -717
    x[3]      c1        470
    x[3]      c2        632
    x[3]      OBJ       -301
    x[4]      c1        360
    x[4]      c2        204
    x[4]      OBJ       -923
    x[5]      c1        850
    x[5]      c2        996
    x[5]      OBJ       -715
    x[6]      c1        942
    x[6]      c2        386
    x[6]      OBJ       -917
    x[7]      c1        667
    x[7]      c2        5
    x[7]      OBJ       -43
    x[8]      c1        334
    x[8]      c2        532
    x[8]      OBJ       -14
    x[9]      c1        217
    x[9]      c2        776
    x[9]      OBJ       -142
    x[10]     c1        692
    x[10]     c2        114
    x[10]     OBJ       -654
    x[11]     c1        221
    x[11]     c2        878
    x[11]     OBJ       -401
    x[12]     c1        266
    x[12]     c2        974
    x[12]     OBJ       -360
    x[13]     c1        518
    x[13]     c2        126
    x[13]     OBJ       -223
    x[14]     c1        291
    x[14]     c2        793
    x[14]     OBJ       -970
    x[15]     c1        744
    x[15]     c2        91
    x[15]     OBJ       -163
    x[16]     c1        950
    x[16]     c2        78
    x[16]     OBJ       -140
    x[17]     c1        410
    x[17]     c2        650
    x[17]     OBJ       -184
    x[18]     c1        90
    x[18]     c2        91
    x[18]     OBJ       -175
    x[19]     c1        195
    x[19]     c2        650
    x[19]     OBJ       -385
    x[20]     c1        672
    x[20]     c2        900
    x[20]     OBJ       -466
RHS
    rhs       c1        4554
    rhs       c2        5112
RANGES
BOUNDS
 LO bounds    x[1]      0
 PL bounds    x[1]
 LO bounds    x[2]      0
 PL bounds    x[2]
 LO bounds    x[3]      0
 PL bounds    x[3]
 LO bounds    x[4]      0
 PL bounds    x[4]
 LO bounds    x[5]      0
 PL bounds    x[5]
 LO bounds    x[6]      0
 PL bounds    x[6]
 LO bounds    x[7]      0
 PL bounds    x[7]
 LO bounds    x[8]      0
 PL bounds    x[8]
 LO bounds    x[9]      0
 PL bounds    x[9]
 LO bounds    x[10]     0
 PL bounds    x[10]
 LO bounds    x[11]     0
 PL bounds    x[11]
 LO bounds    x[12]     0
 PL bounds    x[12]
 LO bounds    x[13]     0
 PL bounds    x[13]
 LO bounds    x[14]     0
 PL bounds    x[14]
 LO bounds    x[15]     0
 PL bounds    x[15]
 LO bounds    x[16]     0
 PL bounds    x[16]
 LO bounds    x[17]     0
 PL bounds    x[17]
 LO bounds    x[18]     0
 PL bounds    x[18]
 LO bounds    x[19]     0
 PL bounds    x[19]
 LO bounds    x[20]     0
 PL bounds    x[20]
ENDATA
